Normalized Data/p10_1030_tsplib0_normalized_splitx10_0.vrp
NAME:p10_1030_tsplib0_NORMALIZED_splitx10_
BEST_KNOWN: 0
COMMENT: 0
DIMENSION: 705
CAPACITY: 1000
EDGE_WEIGHT_FORMAT: FUNCTION
EDGE_WEIGHT_TYPE: EXACT_2D
NODE_COORD_SECTION
1 0.00000 0.00000
2 -13 -13
3 -13 -13
4 -13 -13
5 -13 -13
6 1 -9
7 1 -9
8 1 -9
9 1 -9
10 -14 10
11 -14 10
12 -14 10
13 -14 10
14 -14 10
15 10 0
16 10 0
17 20 -15
18 20 -15
19 20 -15
20 20 -15
21 20 -15
22 -2 -1
23 -2 -1
24 -2 -1
25 -2 -1
26 15 15
27 15 15
28 15 15
29 15 15
30 15 15
31 15 15
32 20 10
33 20 10
34 20 10
35 -9 24
36 -9 24
37 -9 24
38 -9 24
39 -9 24
40 5 31
41 20 30
42 20 30
43 20 30
44 0 16
45 0 16
46 0 16
47 0 16
48 27 0
49 27 0
50 27 0
51 27 0
52 27 0
53 27 0
54 27 22
55 27 -11
56 27 -11
57 27 -11
58 27 -11
59 27 -11
60 -14 1
61 -14 1
62 -2 9
63 -2 9
64 -26 21
65 27 13
66 27 13
67 27 13
68 27 13
69 31 -21
70 9 -22
71 9 -22
72 9 -22
73 -9 -22
74 -9 -22
75 -9 -22
76 -24 -7
77 -24 -7
78 -24 -7
79 -24 -7
80 -28 8
81 -28 8
82 -18 29
83 -18 29
84 6 11
85 6 11
86 6 11
87 6 11
88 6 11
89 20 -1
90 0 -19
91 0 -19
92 17 -9
93 17 -9
94 17 -9
95 17 -9
96 8 -9
97 8 -9
98 8 -9
99 -4 41
100 -4 41
101 -4 41
102 -4 41
103 -13 18
104 -13 18
105 -13 18
106 -9 -6
107 -9 -6
108 -9 -6
109 15 5
110 15 5
111 15 5
112 15 5
113 15 5
114 20 15
115 20 15
116 20 15
117 19 -25
118 19 -25
119 19 -25
120 19 -25
121 19 -25
122 19 -25
123 25 -20
124 25 -20
125 12 31
126 12 31
127 12 31
128 12 31
129 12 31
130 12 31
131 -5 25
132 -5 25
133 -5 25
134 -5 25
135 -5 25
136 -5 25
137 -5 15
138 -5 15
139 -5 15
140 -23 -18
141 -23 -18
142 -23 -18
143 -23 -18
144 -20 -21
145 -20 -21
146 -19 -16
147 -19 -16
148 -19 -16
149 -14 13
150 -14 13
151 -14 13
152 -14 13
153 15 -5
154 15 -5
155 15 -5
156 15 -5
157 16 7
158 16 7
159 15 -20
160 15 -20
161 15 -20
162 15 -20
163 15 -20
164 15 -20
165 13 -14
166 13 -14
167 13 -14
168 13 -14
169 13 -14
170 -23 3
171 -23 3
172 -23 3
173 2 17
174 2 17
175 2 17
176 14 14
177 14 14
178 14 14
179 14 14
180 17 29
181 17 29
182 17 29
183 17 29
184 -15 -9
185 -15 -9
186 5 -5
187 5 -5
188 5 -5
189 5 -5
190 5 -5
191 -14 12
192 -14 12
193 -14 12
194 -14 12
195 -14 12
196 -18 28
197 -18 28
198 -18 28
199 -18 28
200 -18 28
201 -4 27
202 -4 27
203 -4 27
204 17 -2
205 17 -2
206 17 -2
207 17 -2
208 17 -2
209 16 -14
210 16 -14
211 16 -14
212 16 -14
213 16 -14
214 7 6
215 7 6
216 7 6
217 -4 -3
218 -4 -3
219 -4 -3
220 -4 -3
221 -30 -10
222 -30 -10
223 -23 7
224 -23 7
225 -23 7
226 1 -19
227 1 -19
228 17 6
229 17 6
230 17 6
231 17 6
232 -8 -12
233 -8 -12
234 -8 -12
235 -8 -12
236 -8 -12
237 -8 -12
238 -18 -2
239 -18 -2
240 -18 -2
241 -18 -2
242 -22 -22
243 -22 -22
244 22 23
245 22 23
246 22 23
247 22 23
248 22 23
249 22 23
250 27 7
251 27 7
252 27 7
253 27 7
254 7 22
255 7 22
256 7 22
257 7 22
258 7 22
259 -19 22
260 -19 22
261 -19 22
262 -19 22
263 -27 17
264 -27 17
265 -27 17
266 -28 3
267 -28 3
268 -28 3
269 -28 3
270 -28 3
271 -28 3
272 -8 33
273 -8 33
274 -5 13
275 -5 13
276 -5 13
277 8 32
278 8 32
279 23 13
280 23 13
281 23 13
282 23 13
283 23 13
284 23 -8
285 23 -8
286 2 34
287 2 34
288 2 34
289 3 11
290 3 11
291 3 11
292 3 11
293 11 -25
294 11 -25
295 26 -2
296 26 -2
297 26 -2
298 26 -2
299 27 28
300 27 28
301 27 28
302 28 34
303 28 34
304 28 34
305 28 34
306 28 34
307 28 34
308 -3 -13
309 -3 -13
310 10 0
311 10 0
312 10 0
313 10 0
314 10 0
315 10 0
316 24 -20
317 24 -20
318 24 -20
319 -30 -29
320 -30 -29
321 -30 -29
322 -30 -29
323 -25 -18
324 -25 -18
325 -25 -18
326 -14 -25
327 -14 -25
328 -14 -25
329 -30 29
330 -30 29
331 -5 -20
332 -5 -20
333 -5 -20
334 -5 -20
335 4 -25
336 4 -25
337 4 -25
338 4 -25
339 4 -25
340 -3 4
341 -3 4
342 -3 4
343 -3 4
344 -10 -3
345 -10 -3
346 -10 20
347 -10 20
348 13 -7
349 13 -7
350 13 -7
351 13 -7
352 13 -7
353 21 2
354 21 2
355 6 14
356 6 14
357 6 14
358 0 -18
359 0 -18
360 0 -18
361 0 -18
362 20 10
363 20 10
364 20 -15
365 20 -15
366 -20 -5
367 -20 -5
368 -20 -5
369 -20 -5
370 -20 -5
371 -20 -5
372 -10 -5
373 -10 -5
374 -10 -5
375 -10 -5
376 -10 -5
377 -15 15
378 -15 15
379 -15 15
380 -15 15
381 -15 15
382 -25 8
383 -25 8
384 20 25
385 20 25
386 -5 25
387 -5 25
388 -5 25
389 -15 30
390 -15 30
391 -15 30
392 -15 30
393 -15 30
394 15 0
395 15 0
396 15 0
397 15 0
398 15 0
399 -5 -10
400 -5 -10
401 -5 -10
402 -5 -10
403 -20 -25
404 -5 -30
405 -5 -30
406 -5 -30
407 -25 -15
408 -25 -15
409 -25 -15
410 -25 -15
411 -30 -5
412 -30 -5
413 -30 -5
414 -30 -5
415 -15 5
416 -15 5
417 -15 5
418 -15 5
419 -20 25
420 -20 25
421 -20 25
422 10 30
423 10 30
424 10 -15
425 10 -15
426 10 -15
427 10 -15
428 10 -15
429 10 -25
430 10 -25
431 10 -25
432 20 -30
433 20 -30
434 20 -30
435 20 -30
436 20 -30
437 20 -30
438 30 0
439 30 0
440 30 -15
441 30 -15
442 30 -15
443 30 -15
444 10 -5
445 10 -5
446 10 -5
447 10 -5
448 0 5
449 6 2
450 6 2
451 6 2
452 6 2
453 6 2
454 6 2
455 29 7
456 29 7
457 29 7
458 29 7
459 29 7
460 29 7
461 5 25
462 5 25
463 5 25
464 5 25
465 -4 17
466 -4 17
467 -4 17
468 -4 17
469 -4 17
470 -4 17
471 0 34
472 0 34
473 0 34
474 18 17
475 18 17
476 18 17
477 30 20
478 30 20
479 28 30
480 28 30
481 28 30
482 28 30
483 28 30
484 -33 25
485 -33 25
486 -15 -15
487 -15 -15
488 -30 -30
489 -30 -30
490 25 -23
491 25 -23
492 25 -23
493 5 -10
494 5 -10
495 5 -10
496 7 -28
497 7 -28
498 7 -28
499 7 -28
500 7 -28
501 -11 -23
502 -11 -23
503 -12 -32
504 -12 -32
505 -12 -32
506 -24 -21
507 -24 -21
508 -29 3
509 -29 3
510 -29 3
511 -29 3
512 -33 13
513 -33 13
514 -33 13
515 -33 13
516 -27 21
517 -27 21
518 -27 21
519 -27 21
520 -22 17
521 -22 17
522 -22 17
523 -22 17
524 -22 17
525 -22 17
526 -29 33
527 -29 33
528 -29 33
529 -29 33
530 -29 33
531 12 12
532 12 12
533 14 23
534 14 23
535 14 23
536 14 23
537 -8 8
538 -8 8
539 -8 8
540 -8 8
541 -8 8
542 -8 8
543 2 -4
544 2 -4
545 2 -4
546 22 -6
547 22 -6
548 22 -6
549 22 -6
550 22 -6
551 22 -6
552 28 -12
553 28 -12
554 28 -12
555 28 -12
556 28 -12
557 18 -23
558 18 -23
559 18 -23
560 18 -23
561 18 -23
562 -3 -23
563 1 -9
564 1 -9
565 1 -9
566 1 -9
567 -14 -11
568 -14 -11
569 -14 -11
570 -18 -1
571 -18 -1
572 -18 -1
573 -18 -1
574 -18 -1
575 -23 -11
576 -11 23
577 -8 34
578 -8 34
579 -8 34
580 -20 42
581 27 42
582 27 42
583 27 42
584 14 38
585 32 -30
586 32 -30
587 21 4
588 21 4
589 21 4
590 21 4
591 21 4
592 21 4
593 2 12
594 2 12
595 2 12
596 2 12
597 2 12
598 2 21
599 22 33
600 12 -19
601 12 -19
602 9 -18
603 9 -18
604 9 -18
605 9 -18
606 9 -18
607 9 -18
608 11 -22
609 11 -22
610 11 -22
611 14 -24
612 14 -24
613 14 -24
614 14 -24
615 14 -24
616 14 7
617 14 7
618 14 7
619 18 8
620 18 8
621 18 8
622 18 8
623 18 8
624 26 17
625 26 17
626 26 17
627 22 13
628 21 2
629 21 2
630 21 2
631 21 2
632 21 2
633 21 2
634 20 19
635 20 19
636 20 19
637 -20 12
638 -20 12
639 -20 12
640 -20 12
641 -21 2
642 -21 2
643 -21 2
644 -24 -4
645 -24 -4
646 -19 -13
647 -19 -13
648 -31 -17
649 -31 -17
650 -7 -17
651 -7 -17
652 -9 17
653 -9 17
654 -9 17
655 -9 0
656 -9 0
657 -9 0
658 -9 0
659 -9 0
660 -4 32
661 -4 32
662 -4 32
663 -4 32
664 -4 32
665 -4 32
666 -20 -16
667 -20 -16
668 -20 -16
669 -20 -16
670 -20 -16
671 -13 -13
672 -13 -13
673 -13 -13
674 -13 -13
675 -13 -13
676 -13 -13
677 -17 -11
678 -17 -11
679 -17 -11
680 -17 -11
681 -17 -11
682 -9 -8
683 -9 -8
684 -9 -8
685 -9 -8
686 -9 -8
687 -10 -11
688 -10 -11
689 -10 -11
690 -10 -11
691 -13 -8
692 -13 -8
693 -10 -14
694 -10 -14
695 -16 -14
696 -16 -14
697 -16 -14
698 -16 -14
699 -15 -9
700 -15 -9
701 -15 -9
702 -15 -9
703 -17 -17
704 -17 -17
705 -17 -17
DEMAND_SECTION
1 0
2 200
3 50
4 10
5 10
6 100
7 50
8 10
9 10
10 100
11 10
12 10
13 10
14 10
15 200
16 10
17 200
18 50
19 10
20 10
21 10
22 200
23 50
24 10
25 10
26 100
27 50
28 10
29 10
30 10
31 10
32 100
33 10
34 10
35 100
36 10
37 10
38 10
39 10
40 100
41 200
42 50
43 10
44 100
45 50
46 10
47 10
48 100
49 50
50 10
51 10
52 10
53 10
54 200
55 200
56 10
57 10
58 10
59 10
60 100
61 50
62 100
63 10
64 200
65 200
66 50
67 10
68 10
69 200
70 100
71 10
72 10
73 200
74 10
75 10
76 200
77 10
78 10
79 10
80 200
81 10
82 200
83 50
84 200
85 10
86 10
87 10
88 10
89 100
90 200
91 50
92 100
93 10
94 10
95 10
96 100
97 10
98 10
99 200
100 50
101 10
102 10
103 200
104 50
105 10
106 200
107 50
108 10
109 100
110 10
111 10
112 10
113 10
114 200
115 50
116 10
117 100
118 50
119 10
120 10
121 10
122 10
123 200
124 50
125 100
126 50
127 10
128 10
129 10
130 10
131 100
132 50
133 10
134 10
135 10
136 10
137 200
138 50
139 10
140 100
141 10
142 10
143 10
144 100
145 10
146 200
147 10
148 10
149 200
150 10
151 10
152 10
153 200
154 50
155 10
156 10
157 100
158 50
159 100
160 50
161 10
162 10
163 10
164 10
165 100
166 50
167 10
168 10
169 10
170 200
171 50
172 10
173 200
174 10
175 10
176 200
177 10
178 10
179 10
180 200
181 10
182 10
183 10
184 100
185 10
186 200
187 50
188 10
189 10
190 10
191 200
192 10
193 10
194 10
195 10
196 200
197 10
198 10
199 10
200 10
201 100
202 50
203 10
204 200
205 10
206 10
207 10
208 10
209 100
210 50
211 10
212 10
213 10
214 100
215 50
216 10
217 200
218 50
219 10
220 10
221 100
222 50
223 100
224 50
225 10
226 100
227 50
228 100
229 50
230 10
231 10
232 100
233 50
234 10
235 10
236 10
237 10
238 200
239 50
240 10
241 10
242 100
243 10
244 200
245 50
246 10
247 10
248 10
249 10
250 200
251 50
252 10
253 10
254 200
255 50
256 10
257 10
258 10
259 200
260 50
261 10
262 10
263 200
264 50
265 10
266 200
267 50
268 10
269 10
270 10
271 10
272 100
273 10
274 100
275 50
276 10
277 200
278 10
279 200
280 10
281 10
282 10
283 10
284 200
285 10
286 200
287 50
288 10
289 200
290 10
291 10
292 10
293 100
294 50
295 200
296 10
297 10
298 10
299 200
300 10
301 10
302 200
303 50
304 10
305 10
306 10
307 10
308 200
309 50
310 200
311 50
312 10
313 10
314 10
315 10
316 200
317 50
318 10
319 200
320 50
321 10
322 10
323 100
324 10
325 10
326 200
327 50
328 10
329 200
330 10
331 100
332 10
333 10
334 10
335 200
336 50
337 10
338 10
339 10
340 200
341 10
342 10
343 10
344 200
345 50
346 200
347 50
348 100
349 50
350 10
351 10
352 10
353 200
354 50
355 100
356 10
357 10
358 200
359 10
360 10
361 10
362 200
363 50
364 200
365 50
366 200
367 50
368 10
369 10
370 10
371 10
372 100
373 50
374 10
375 10
376 10
377 100
378 10
379 10
380 10
381 10
382 100
383 10
384 200
385 10
386 100
387 50
388 10
389 200
390 50
391 10
392 10
393 10
394 200
395 50
396 10
397 10
398 10
399 200
400 10
401 10
402 10
403 100
404 100
405 50
406 10
407 200
408 10
409 10
410 10
411 100
412 50
413 10
414 10
415 100
416 50
417 10
418 10
419 200
420 50
421 10
422 200
423 50
424 200
425 50
426 10
427 10
428 10
429 100
430 50
431 10
432 100
433 50
434 10
435 10
436 10
437 10
438 100
439 10
440 100
441 50
442 10
443 10
444 200
445 10
446 10
447 10
448 200
449 200
450 50
451 10
452 10
453 10
454 10
455 100
456 50
457 10
458 10
459 10
460 10
461 200
462 10
463 10
464 10
465 100
466 50
467 10
468 10
469 10
470 10
471 200
472 10
473 10
474 200
475 10
476 10
477 200
478 50
479 200
480 10
481 10
482 10
483 10
484 200
485 50
486 200
487 10
488 200
489 10
490 100
491 50
492 10
493 100
494 50
495 10
496 200
497 50
498 10
499 10
500 10
501 200
502 10
503 200
504 10
505 10
506 200
507 10
508 100
509 10
510 10
511 10
512 200
513 10
514 10
515 10
516 200
517 10
518 10
519 10
520 200
521 50
522 10
523 10
524 10
525 10
526 100
527 10
528 10
529 10
530 10
531 200
532 10
533 100
534 50
535 10
536 10
537 100
538 50
539 10
540 10
541 10
542 10
543 100
544 10
545 10
546 200
547 50
548 10
549 10
550 10
551 10
552 100
553 50
554 10
555 10
556 10
557 100
558 50
559 10
560 10
561 10
562 100
563 200
564 10
565 10
566 10
567 100
568 10
569 10
570 100
571 10
572 10
573 10
574 10
575 200
576 100
577 100
578 10
579 10
580 100
581 100
582 10
583 10
584 100
585 200
586 50
587 200
588 50
589 10
590 10
591 10
592 10
593 100
594 10
595 10
596 10
597 10
598 100
599 100
600 200
601 50
602 100
603 50
604 10
605 10
606 10
607 10
608 200
609 10
610 10
611 100
612 10
613 10
614 10
615 10
616 200
617 10
618 10
619 100
620 50
621 10
622 10
623 10
624 200
625 10
626 10
627 200
628 100
629 50
630 10
631 10
632 10
633 10
634 200
635 50
636 10
637 200
638 10
639 10
640 10
641 100
642 50
643 10
644 200
645 10
646 100
647 50
648 100
649 50
650 200
651 50
652 200
653 50
654 10
655 100
656 10
657 10
658 10
659 10
660 100
661 50
662 10
663 10
664 10
665 10
666 100
667 50
668 10
669 10
670 10
671 100
672 50
673 10
674 10
675 10
676 10
677 200
678 50
679 10
680 10
681 10
682 200
683 50
684 10
685 10
686 10
687 100
688 10
689 10
690 10
691 100
692 10
693 200
694 10
695 200
696 50
697 10
698 10
699 200
700 10
701 10
702 10
703 100
704 50
705 10
DEPOT_SECTION
1
-1
EOF