Normalized Data/p10_1030_tsplib0_normalized_splitx10_0.sol
704 -5 8 226 225 89 90 359 358 357 360 307 308 -16 364 18 363 17 212 211 209 210 208 166 168 164 167 165 95 97 96 -21 23 24 -22 -60 59 171 169 170 640 642 641 572 570 569 573 571 240 237 239 238 -61 62 575 391 389 388 390 392 82 81 197 198 195 199 196 -65 66 64 67 477 476 53 624 623 625 114 115 -69 70 71 292 293 429 428 430 495 496 499 497 498 334 336 338 337 335 -86 84 85 83 87 356 354 355 28 29 30 26 27 25 177 176 178 175 531 530 -88 630 631 628 353 629 627 352 632 586 588 591 590 589 587 228 229 451 449 453 450 452 -110 109 111 108 112 230 227 619 621 622 618 620 361 362 31 616 617 615 -117 118 120 116 119 121 436 431 435 434 432 433 584 585 68 439 440 442 441 -137 138 136 45 46 43 44 173 172 595 593 594 592 290 288 289 291 -141 506 505 242 241 488 487 319 318 321 320 648 647 184 701 -149 151 484 483 329 328 528 527 525 529 526 579 100 98 101 99 662 -153 154 546 547 545 550 548 549 283 284 57 55 56 54 58 551 554 553 555 552 -157 156 32 33 281 279 280 278 282 626 113 215 214 213 -174 597 287 285 286 471 470 472 663 660 659 661 664 578 577 576 271 272 -187 186 189 493 494 492 427 425 423 424 426 606 603 601 604 602 605 562 6 563 7 564 565 -217 218 216 219 105 107 106 373 372 371 374 375 343 344 -224 223 222 382 381 80 79 507 509 510 508 265 269 267 270 266 268 366 367 369 -235 234 236 233 232 231 501 500 74 73 72 332 333 331 330 649 650 -245 246 248 300 299 298 480 482 479 481 478 304 306 302 305 303 301 580 582 581 583 -251 250 252 249 459 454 458 455 457 456 437 438 52 48 50 49 51 47 295 297 296 294 -255 253 256 257 254 180 179 182 181 598 42 40 41 532 534 535 -258 259 260 261 419 420 418 63 516 515 518 517 521 522 524 -274 275 273 35 37 34 38 36 201 202 200 134 131 386 130 135 387 132 133 385 469 468 464 465 467 466 -314 313 15 312 397 394 395 396 393 206 205 207 204 203 155 152 443 444 446 445 -342 341 340 339 447 -349 347 350 351 348 93 92 91 94 19 20 317 315 316 123 122 490 489 491 -365 368 370 77 75 76 78 221 220 410 412 411 413 643 644 -401 399 398 400 693 692 671 2 670 673 3 672 1 674 686 687 -422 421 126 129 128 124 127 125 277 276 39 461 462 463 460 596 -448 309 14 311 310 185 188 543 544 542 -474 473 475 633 635 634 243 244 247 383 384 533 -486 485 704 703 702 147 146 145 694 695 697 696 566 567 568 -523 519 520 264 262 263 512 511 513 514 638 639 637 636 -536 150 148 193 190 192 191 194 13 12 10 11 9 414 417 415 416 654 657 658 655 656 -538 539 540 537 541 380 377 376 378 379 104 102 103 345 346 652 651 653 -561 403 405 404 504 503 502 326 327 325 402 144 143 675 4 688 689 -574 408 407 409 406 324 322 323 142 139 140 665 666 667 668 669 645 646 -600 599 162 163 160 159 161 158 560 558 559 557 556 611 614 612 613 610 609 608 607 -682 684 685 683 681 676 677 680 679 678 698 700 183 699 691 690 0 





OBJ=
2499.306
BEST_KNOWN=
0.000